p cnf 388 1603
7 0
13 0
19 0
25 0
31 0
14 0
20 0
26 0
32 0
21 0
27 0
33 0
28 0
34 0
35 0
-7 -14 13 0
-7 -20 19 0
-7 -26 25 0
-7 -32 31 0
-13 -9 7 0
-13 -21 19 0
-13 -27 25 0
-13 -33 31 0
-19 -10 7 0
-19 -16 13 0
-19 -28 25 0
-19 -34 31 0
-25 -11 7 0
-25 -17 13 0
-25 -23 19 0
-25 -35 31 0
-31 -12 7 0
-31 -18 13 0
-31 -24 19 0
-31 -30 25 0
-2 -13 14 0
-2 -19 20 0
-2 -25 26 0
-2 -31 32 0
-14 -3 2 0
-14 -21 20 0
-14 -27 26 0
-14 -33 32 0
-20 -4 2 0
-20 -16 14 0
-20 -28 26 0
-20 -34 32 0
-26 -5 2 0
-26 -17 14 0
-26 -23 20 0
-26 -35 32 0
-32 -6 2 0
-32 -18 14 0
-32 -24 20 0
-32 -30 26 0
-3 -7 9 0
-3 -19 21 0
-3 -25 27 0
-3 -31 33 0
-9 -2 3 0
-9 -20 21 0
-9 -26 27 0
-9 -32 33 0
-21 -4 3 0
-21 -10 9 0
-21 -28 27 0
-21 -34 33 0
-27 -5 3 0
-27 -11 9 0
-27 -23 21 0
-27 -35 33 0
-33 -6 3 0
-33 -12 9 0
-33 -24 21 0
-33 -30 27 0
-4 -7 10 0
-4 -13 16 0
-4 -25 28 0
-4 -31 34 0
-10 -2 4 0
-10 -14 16 0
-10 -26 28 0
-10 -32 34 0
-16 -3 4 0
-16 -9 10 0
-16 -27 28 0
-16 -33 34 0
-28 -5 4 0
-28 -11 10 0
-28 -17 16 0
-28 -35 34 0
-34 -6 4 0
-34 -12 10 0
-34 -18 16 0
-34 -30 28 0
-5 -7 11 0
-5 -13 17 0
-5 -19 23 0
-5 -31 35 0
-11 -2 5 0
-11 -14 17 0
-11 -20 23 0
-11 -32 35 0
-17 -3 5 0
-17 -9 11 0
-17 -21 23 0
-17 -33 35 0
-23 -4 5 0
-23 -10 11 0
-23 -16 17 0
-23 -34 35 0
-35 -6 5 0
-35 -12 11 0
-35 -18 17 0
-35 -24 23 0
-6 -7 12 0
-6 -13 18 0
-6 -19 24 0
-6 -25 30 0
-12 -2 6 0
-12 -14 18 0
-12 -20 24 0
-12 -26 30 0
-18 -3 6 0
-18 -9 12 0
-18 -21 24 0
-18 -27 30 0
-24 -4 6 0
-24 -10 12 0
-24 -16 18 0
-24 -28 30 0
-30 -5 6 0
-30 -11 12 0
-30 -17 18 0
-30 -23 24 0
-43 -50 49 0
-43 -56 55 0
-43 -62 61 0
-43 -68 67 0
-49 -45 43 0
-49 -57 55 0
-49 -63 61 0
-49 -69 67 0
-55 -46 43 0
-55 -52 49 0
-55 -64 61 0
-55 -70 67 0
-61 -47 43 0
-61 -53 49 0
-61 -59 55 0
-61 -71 67 0
-67 -48 43 0
-67 -54 49 0
-67 -60 55 0
-67 -66 61 0
-38 -49 50 0
-38 -55 56 0
-38 -61 62 0
-38 -67 68 0
-50 -39 38 0
-50 -57 56 0
-50 -63 62 0
-50 -69 68 0
-56 -40 38 0
-56 -52 50 0
-56 -64 62 0
-56 -70 68 0
-62 -41 38 0
-62 -53 50 0
-62 -59 56 0
-62 -71 68 0
-68 -42 38 0
-68 -54 50 0
-68 -60 56 0
-68 -66 62 0
-39 -43 45 0
-39 -55 57 0
-39 -61 63 0
-39 -67 69 0
-45 -38 39 0
-45 -56 57 0
-45 -62 63 0
-45 -68 69 0
-57 -40 39 0
-57 -46 45 0
-57 -64 63 0
-57 -70 69 0
-63 -41 39 0
-63 -47 45 0
-63 -59 57 0
-63 -71 69 0
-69 -42 39 0
-69 -48 45 0
-69 -60 57 0
-69 -66 63 0
-40 -43 46 0
-40 -49 52 0
-40 -61 64 0
-40 -67 70 0
-46 -38 40 0
-46 -50 52 0
-46 -62 64 0
-46 -68 70 0
-52 -39 40 0
-52 -45 46 0
-52 -63 64 0
-52 -69 70 0
-64 -41 40 0
-64 -47 46 0
-64 -53 52 0
-64 -71 70 0
-70 -42 40 0
-70 -48 46 0
-70 -54 52 0
-70 -66 64 0
-41 -43 47 0
-41 -49 53 0
-41 -55 59 0
-41 -67 71 0
-47 -38 41 0
-47 -50 53 0
-47 -56 59 0
-47 -68 71 0
-53 -39 41 0
-53 -45 47 0
-53 -57 59 0
-53 -69 71 0
-59 -40 41 0
-59 -46 47 0
-59 -52 53 0
-59 -70 71 0
-71 -42 41 0
-71 -48 47 0
-71 -54 53 0
-71 -60 59 0
-42 -43 48 0
-42 -49 54 0
-42 -55 60 0
-42 -61 66 0
-48 -38 42 0
-48 -50 54 0
-48 -56 60 0
-48 -62 66 0
-54 -39 42 0
-54 -45 48 0
-54 -57 60 0
-54 -63 66 0
-60 -40 42 0
-60 -46 48 0
-60 -52 54 0
-60 -64 66 0
-66 -41 42 0
-66 -47 48 0
-66 -53 54 0
-66 -59 60 0
-79 -86 85 0
-79 -92 91 0
-79 -98 97 0
-79 -104 103 0
-85 -81 79 0
-85 -93 91 0
-85 -99 97 0
-85 -105 103 0
-91 -82 79 0
-91 -88 85 0
-91 -100 97 0
-91 -106 103 0
-97 -83 79 0
-97 -89 85 0
-97 -95 91 0
-97 -107 103 0
-103 -84 79 0
-103 -90 85 0
-103 -96 91 0
-103 -102 97 0
-74 -85 86 0
-74 -91 92 0
-74 -97 98 0
-74 -103 104 0
-86 -75 74 0
-86 -93 92 0
-86 -99 98 0
-86 -105 104 0
-92 -76 74 0
-92 -88 86 0
-92 -100 98 0
-92 -106 104 0
-98 -77 74 0
-98 -89 86 0
-98 -95 92 0
-98 -107 104 0
-104 -78 74 0
-104 -90 86 0
-104 -96 92 0
-104 -102 98 0
-75 -79 81 0
-75 -91 93 0
-75 -97 99 0
-75 -103 105 0
-81 -74 75 0
-81 -92 93 0
-81 -98 99 0
-81 -104 105 0
-93 -76 75 0
-93 -82 81 0
-93 -100 99 0
-93 -106 105 0
-99 -77 75 0
-99 -83 81 0
-99 -95 93 0
-99 -107 105 0
-105 -78 75 0
-105 -84 81 0
-105 -96 93 0
-105 -102 99 0
-76 -79 82 0
-76 -85 88 0
-76 -97 100 0
-76 -103 106 0
-82 -74 76 0
-82 -86 88 0
-82 -98 100 0
-82 -104 106 0
-88 -75 76 0
-88 -81 82 0
-88 -99 100 0
-88 -105 106 0
-100 -77 76 0
-100 -83 82 0
-100 -89 88 0
-100 -107 106 0
-106 -78 76 0
-106 -84 82 0
-106 -90 88 0
-106 -102 100 0
-77 -79 83 0
-77 -85 89 0
-77 -91 95 0
-77 -103 107 0
-83 -74 77 0
-83 -86 89 0
-83 -92 95 0
-83 -104 107 0
-89 -75 77 0
-89 -81 83 0
-89 -93 95 0
-89 -105 107 0
-95 -76 77 0
-95 -82 83 0
-95 -88 89 0
-95 -106 107 0
-107 -78 77 0
-107 -84 83 0
-107 -90 89 0
-107 -96 95 0
-78 -79 84 0
-78 -85 90 0
-78 -91 96 0
-78 -97 102 0
-84 -74 78 0
-84 -86 90 0
-84 -92 96 0
-84 -98 102 0
-90 -75 78 0
-90 -81 84 0
-90 -93 96 0
-90 -99 102 0
-96 -76 78 0
-96 -82 84 0
-96 -88 90 0
-96 -100 102 0
-102 -77 78 0
-102 -83 84 0
-102 -89 90 0
-102 -95 96 0
-115 -122 121 0
-115 -128 127 0
-115 -134 133 0
-115 -140 139 0
-121 -117 115 0
-121 -129 127 0
-121 -135 133 0
-121 -141 139 0
-127 -118 115 0
-127 -124 121 0
-127 -136 133 0
-127 -142 139 0
-133 -119 115 0
-133 -125 121 0
-133 -131 127 0
-133 -143 139 0
-139 -120 115 0
-139 -126 121 0
-139 -132 127 0
-139 -138 133 0
-110 -121 122 0
-110 -127 128 0
-110 -133 134 0
-110 -139 140 0
-122 -111 110 0
-122 -129 128 0
-122 -135 134 0
-122 -141 140 0
-128 -112 110 0
-128 -124 122 0
-128 -136 134 0
-128 -142 140 0
-134 -113 110 0
-134 -125 122 0
-134 -131 128 0
-134 -143 140 0
-140 -114 110 0
-140 -126 122 0
-140 -132 128 0
-140 -138 134 0
-111 -115 117 0
-111 -127 129 0
-111 -133 135 0
-111 -139 141 0
-117 -110 111 0
-117 -128 129 0
-117 -134 135 0
-117 -140 141 0
-129 -112 111 0
-129 -118 117 0
-129 -136 135 0
-129 -142 141 0
-135 -113 111 0
-135 -119 117 0
-135 -131 129 0
-135 -143 141 0
-141 -114 111 0
-141 -120 117 0
-141 -132 129 0
-141 -138 135 0
-112 -115 118 0
-112 -121 124 0
-112 -133 136 0
-112 -139 142 0
-118 -110 112 0
-118 -122 124 0
-118 -134 136 0
-118 -140 142 0
-124 -111 112 0
-124 -117 118 0
-124 -135 136 0
-124 -141 142 0
-136 -113 112 0
-136 -119 118 0
-136 -125 124 0
-136 -143 142 0
-142 -114 112 0
-142 -120 118 0
-142 -126 124 0
-142 -138 136 0
-113 -115 119 0
-113 -121 125 0
-113 -127 131 0
-113 -139 143 0
-119 -110 113 0
-119 -122 125 0
-119 -128 131 0
-119 -140 143 0
-125 -111 113 0
-125 -117 119 0
-125 -129 131 0
-125 -141 143 0
-131 -112 113 0
-131 -118 119 0
-131 -124 125 0
-131 -142 143 0
-143 -114 113 0
-143 -120 119 0
-143 -126 125 0
-143 -132 131 0
-114 -115 120 0
-114 -121 126 0
-114 -127 132 0
-114 -133 138 0
-120 -110 114 0
-120 -122 126 0
-120 -128 132 0
-120 -134 138 0
-126 -111 114 0
-126 -117 120 0
-126 -129 132 0
-126 -135 138 0
-132 -112 114 0
-132 -118 120 0
-132 -124 126 0
-132 -136 138 0
-138 -113 114 0
-138 -119 120 0
-138 -125 126 0
-138 -131 132 0
-151 -158 157 0
-151 -164 163 0
-151 -170 169 0
-151 -176 175 0
-157 -153 151 0
-157 -165 163 0
-157 -171 169 0
-157 -177 175 0
-163 -154 151 0
-163 -160 157 0
-163 -172 169 0
-163 -178 175 0
-169 -155 151 0
-169 -161 157 0
-169 -167 163 0
-169 -179 175 0
-175 -156 151 0
-175 -162 157 0
-175 -168 163 0
-175 -174 169 0
-146 -157 158 0
-146 -163 164 0
-146 -169 170 0
-146 -175 176 0
-158 -147 146 0
-158 -165 164 0
-158 -171 170 0
-158 -177 176 0
-164 -148 146 0
-164 -160 158 0
-164 -172 170 0
-164 -178 176 0
-170 -149 146 0
-170 -161 158 0
-170 -167 164 0
-170 -179 176 0
-176 -150 146 0
-176 -162 158 0
-176 -168 164 0
-176 -174 170 0
-147 -151 153 0
-147 -163 165 0
-147 -169 171 0
-147 -175 177 0
-153 -146 147 0
-153 -164 165 0
-153 -170 171 0
-153 -176 177 0
-165 -148 147 0
-165 -154 153 0
-165 -172 171 0
-165 -178 177 0
-171 -149 147 0
-171 -155 153 0
-171 -167 165 0
-171 -179 177 0
-177 -150 147 0
-177 -156 153 0
-177 -168 165 0
-177 -174 171 0
-148 -151 154 0
-148 -157 160 0
-148 -169 172 0
-148 -175 178 0
-154 -146 148 0
-154 -158 160 0
-154 -170 172 0
-154 -176 178 0
-160 -147 148 0
-160 -153 154 0
-160 -171 172 0
-160 -177 178 0
-172 -149 148 0
-172 -155 154 0
-172 -161 160 0
-172 -179 178 0
-178 -150 148 0
-178 -156 154 0
-178 -162 160 0
-178 -174 172 0
-149 -151 155 0
-149 -157 161 0
-149 -163 167 0
-149 -175 179 0
-155 -146 149 0
-155 -158 161 0
-155 -164 167 0
-155 -176 179 0
-161 -147 149 0
-161 -153 155 0
-161 -165 167 0
-161 -177 179 0
-167 -148 149 0
-167 -154 155 0
-167 -160 161 0
-167 -178 179 0
-179 -150 149 0
-179 -156 155 0
-179 -162 161 0
-179 -168 167 0
-150 -151 156 0
-150 -157 162 0
-150 -163 168 0
-150 -169 174 0
-156 -146 150 0
-156 -158 162 0
-156 -164 168 0
-156 -170 174 0
-162 -147 150 0
-162 -153 156 0
-162 -165 168 0
-162 -171 174 0
-168 -148 150 0
-168 -154 156 0
-168 -160 162 0
-168 -172 174 0
-174 -149 150 0
-174 -155 156 0
-174 -161 162 0
-174 -167 168 0
-187 -194 193 0
-187 -200 199 0
-187 -206 205 0
-187 -212 211 0
-193 -189 187 0
-193 -201 199 0
-193 -207 205 0
-193 -213 211 0
-199 -190 187 0
-199 -196 193 0
-199 -208 205 0
-199 -214 211 0
-205 -191 187 0
-205 -197 193 0
-205 -203 199 0
-205 -215 211 0
-211 -192 187 0
-211 -198 193 0
-211 -204 199 0
-211 -210 205 0
-182 -193 194 0
-182 -199 200 0
-182 -205 206 0
-182 -211 212 0
-194 -183 182 0
-194 -201 200 0
-194 -207 206 0
-194 -213 212 0
-200 -184 182 0
-200 -196 194 0
-200 -208 206 0
-200 -214 212 0
-206 -185 182 0
-206 -197 194 0
-206 -203 200 0
-206 -215 212 0
-212 -186 182 0
-212 -198 194 0
-212 -204 200 0
-212 -210 206 0
-183 -187 189 0
-183 -199 201 0
-183 -205 207 0
-183 -211 213 0
-189 -182 183 0
-189 -200 201 0
-189 -206 207 0
-189 -212 213 0
-201 -184 183 0
-201 -190 189 0
-201 -208 207 0
-201 -214 213 0
-207 -185 183 0
-207 -191 189 0
-207 -203 201 0
-207 -215 213 0
-213 -186 183 0
-213 -192 189 0
-213 -204 201 0
-213 -210 207 0
-184 -187 190 0
-184 -193 196 0
-184 -205 208 0
-184 -211 214 0
-190 -182 184 0
-190 -194 196 0
-190 -206 208 0
-190 -212 214 0
-196 -183 184 0
-196 -189 190 0
-196 -207 208 0
-196 -213 214 0
-208 -185 184 0
-208 -191 190 0
-208 -197 196 0
-208 -215 214 0
-214 -186 184 0
-214 -192 190 0
-214 -198 196 0
-214 -210 208 0
-185 -187 191 0
-185 -193 197 0
-185 -199 203 0
-185 -211 215 0
-191 -182 185 0
-191 -194 197 0
-191 -200 203 0
-191 -212 215 0
-197 -183 185 0
-197 -189 191 0
-197 -201 203 0
-197 -213 215 0
-203 -184 185 0
-203 -190 191 0
-203 -196 197 0
-203 -214 215 0
-215 -186 185 0
-215 -192 191 0
-215 -198 197 0
-215 -204 203 0
-186 -187 192 0
-186 -193 198 0
-186 -199 204 0
-186 -205 210 0
-192 -182 186 0
-192 -194 198 0
-192 -200 204 0
-192 -206 210 0
-198 -183 186 0
-198 -189 192 0
-198 -201 204 0
-198 -207 210 0
-204 -184 186 0
-204 -190 192 0
-204 -196 198 0
-204 -208 210 0
-210 -185 186 0
-210 -191 192 0
-210 -197 198 0
-210 -203 204 0
7 2 0
-7 -2 0
13 3 0
-13 -3 0
19 4 0
-19 -4 0
25 5 0
-25 -5 0
31 6 0
-31 -6 0
2 7 0
-2 -7 0
14 9 0
-14 -9 0
20 10 0
-20 -10 0
26 11 0
-26 -11 0
32 12 0
-32 -12 0
3 13 0
-3 -13 0
9 14 0
-9 -14 0
21 16 0
-21 -16 0
27 17 0
-27 -17 0
33 18 0
-33 -18 0
4 19 0
-4 -19 0
10 20 0
-10 -20 0
16 21 0
-16 -21 0
28 23 0
-28 -23 0
34 24 0
-34 -24 0
5 25 0
-5 -25 0
11 26 0
-11 -26 0
17 27 0
-17 -27 0
23 28 0
-23 -28 0
35 30 0
-35 -30 0
6 31 0
-6 -31 0
12 32 0
-12 -32 0
18 33 0
-18 -33 0
24 34 0
-24 -34 0
30 35 0
-30 -35 0
43 38 0
-43 -38 0
49 39 0
-49 -39 0
55 40 0
-55 -40 0
61 41 0
-61 -41 0
67 42 0
-67 -42 0
38 43 0
-38 -43 0
50 45 0
-50 -45 0
56 46 0
-56 -46 0
62 47 0
-62 -47 0
68 48 0
-68 -48 0
39 49 0
-39 -49 0
45 50 0
-45 -50 0
57 52 0
-57 -52 0
63 53 0
-63 -53 0
69 54 0
-69 -54 0
40 55 0
-40 -55 0
46 56 0
-46 -56 0
52 57 0
-52 -57 0
64 59 0
-64 -59 0
70 60 0
-70 -60 0
41 61 0
-41 -61 0
47 62 0
-47 -62 0
53 63 0
-53 -63 0
59 64 0
-59 -64 0
71 66 0
-71 -66 0
42 67 0
-42 -67 0
48 68 0
-48 -68 0
54 69 0
-54 -69 0
60 70 0
-60 -70 0
66 71 0
-66 -71 0
79 74 0
-79 -74 0
85 75 0
-85 -75 0
91 76 0
-91 -76 0
97 77 0
-97 -77 0
103 78 0
-103 -78 0
74 79 0
-74 -79 0
86 81 0
-86 -81 0
92 82 0
-92 -82 0
98 83 0
-98 -83 0
104 84 0
-104 -84 0
75 85 0
-75 -85 0
81 86 0
-81 -86 0
93 88 0
-93 -88 0
99 89 0
-99 -89 0
105 90 0
-105 -90 0
76 91 0
-76 -91 0
82 92 0
-82 -92 0
88 93 0
-88 -93 0
100 95 0
-100 -95 0
106 96 0
-106 -96 0
77 97 0
-77 -97 0
83 98 0
-83 -98 0
89 99 0
-89 -99 0
95 100 0
-95 -100 0
107 102 0
-107 -102 0
78 103 0
-78 -103 0
84 104 0
-84 -104 0
90 105 0
-90 -105 0
96 106 0
-96 -106 0
102 107 0
-102 -107 0
115 110 0
-115 -110 0
121 111 0
-121 -111 0
127 112 0
-127 -112 0
133 113 0
-133 -113 0
139 114 0
-139 -114 0
110 115 0
-110 -115 0
122 117 0
-122 -117 0
128 118 0
-128 -118 0
134 119 0
-134 -119 0
140 120 0
-140 -120 0
111 121 0
-111 -121 0
117 122 0
-117 -122 0
129 124 0
-129 -124 0
135 125 0
-135 -125 0
141 126 0
-141 -126 0
112 127 0
-112 -127 0
118 128 0
-118 -128 0
124 129 0
-124 -129 0
136 131 0
-136 -131 0
142 132 0
-142 -132 0
113 133 0
-113 -133 0
119 134 0
-119 -134 0
125 135 0
-125 -135 0
131 136 0
-131 -136 0
143 138 0
-143 -138 0
114 139 0
-114 -139 0
120 140 0
-120 -140 0
126 141 0
-126 -141 0
132 142 0
-132 -142 0
138 143 0
-138 -143 0
151 146 0
-151 -146 0
157 147 0
-157 -147 0
163 148 0
-163 -148 0
169 149 0
-169 -149 0
175 150 0
-175 -150 0
146 151 0
-146 -151 0
158 153 0
-158 -153 0
164 154 0
-164 -154 0
170 155 0
-170 -155 0
176 156 0
-176 -156 0
147 157 0
-147 -157 0
153 158 0
-153 -158 0
165 160 0
-165 -160 0
171 161 0
-171 -161 0
177 162 0
-177 -162 0
148 163 0
-148 -163 0
154 164 0
-154 -164 0
160 165 0
-160 -165 0
172 167 0
-172 -167 0
178 168 0
-178 -168 0
149 169 0
-149 -169 0
155 170 0
-155 -170 0
161 171 0
-161 -171 0
167 172 0
-167 -172 0
179 174 0
-179 -174 0
150 175 0
-150 -175 0
156 176 0
-156 -176 0
162 177 0
-162 -177 0
168 178 0
-168 -178 0
174 179 0
-174 -179 0
187 182 0
-187 -182 0
193 183 0
-193 -183 0
199 184 0
-199 -184 0
205 185 0
-205 -185 0
211 186 0
-211 -186 0
182 187 0
-182 -187 0
194 189 0
-194 -189 0
200 190 0
-200 -190 0
206 191 0
-206 -191 0
212 192 0
-212 -192 0
183 193 0
-183 -193 0
189 194 0
-189 -194 0
201 196 0
-201 -196 0
207 197 0
-207 -197 0
213 198 0
-213 -198 0
184 199 0
-184 -199 0
190 200 0
-190 -200 0
196 201 0
-196 -201 0
208 203 0
-208 -203 0
214 204 0
-214 -204 0
185 205 0
-185 -205 0
191 206 0
-191 -206 0
197 207 0
-197 -207 0
203 208 0
-203 -208 0
215 210 0
-215 -210 0
186 211 0
-186 -211 0
192 212 0
-192 -212 0
198 213 0
-198 -213 0
204 214 0
-204 -214 0
210 215 0
-210 -215 0
-325 -333 0
-325 -341 0
-325 -349 0
-325 -357 0
-333 -341 0
-333 -349 0
-333 -357 0
-341 -349 0
-341 -357 0
-349 -357 0
-326 -334 0
-326 -342 0
-326 -350 0
-326 -358 0
-334 -342 0
-334 -350 0
-334 -358 0
-342 -350 0
-342 -358 0
-350 -358 0
-327 -335 0
-327 -343 0
-327 -351 0
-327 -359 0
-335 -343 0
-335 -351 0
-335 -359 0
-343 -351 0
-343 -359 0
-351 -359 0
-328 -336 0
-328 -344 0
-328 -352 0
-328 -360 0
-336 -344 0
-336 -352 0
-336 -360 0
-344 -352 0
-344 -360 0
-352 -360 0
-329 -337 0
-329 -345 0
-329 -353 0
-329 -361 0
-337 -345 0
-337 -353 0
-337 -361 0
-345 -353 0
-345 -361 0
-353 -361 0
-330 -338 0
-330 -346 0
-330 -354 0
-330 -362 0
-338 -346 0
-338 -354 0
-338 -362 0
-346 -354 0
-346 -362 0
-354 -362 0
-331 -339 0
-331 -347 0
-331 -355 0
-331 -363 0
-339 -347 0
-339 -355 0
-339 -363 0
-347 -355 0
-347 -363 0
-355 -363 0
-332 -340 0
-332 -348 0
-332 -356 0
-332 -364 0
-340 -348 0
-340 -356 0
-340 -364 0
-348 -356 0
-348 -364 0
-356 -364 0
325 333 341 349 357 0
326 334 342 350 358 0
327 335 343 351 359 0
328 336 344 352 360 0
329 337 345 353 361 0
330 338 346 354 362 0
331 339 347 355 363 0
332 340 348 356 364 0
-325 -14 -50 0
-325 14 50 0
-333 -50 -86 0
-333 50 86 0
-341 -86 -122 0
-341 86 122 0
-349 -122 -158 0
-349 122 158 0
-357 -158 -194 0
-357 158 194 0
-326 -20 -56 0
-326 20 56 0
-334 -56 -92 0
-334 56 92 0
-342 -92 -128 0
-342 92 128 0
-350 -128 -164 0
-350 128 164 0
-358 -164 -200 0
-358 164 200 0
-327 -26 -62 0
-327 26 62 0
-335 -62 -98 0
-335 62 98 0
-343 -98 -134 0
-343 98 134 0
-351 -134 -170 0
-351 134 170 0
-359 -170 -206 0
-359 170 206 0
-328 -32 -68 0
-328 32 68 0
-336 -68 -104 0
-336 68 104 0
-344 -104 -140 0
-344 104 140 0
-352 -140 -176 0
-352 140 176 0
-360 -176 -212 0
-360 176 212 0
-329 -21 -57 0
-329 21 57 0
-337 -57 -93 0
-337 57 93 0
-345 -93 -129 0
-345 93 129 0
-353 -129 -165 0
-353 129 165 0
-361 -165 -201 0
-361 165 201 0
-330 -27 -63 0
-330 27 63 0
-338 -63 -99 0
-338 63 99 0
-346 -99 -135 0
-346 99 135 0
-354 -135 -171 0
-354 135 171 0
-362 -171 -207 0
-362 171 207 0
-331 -33 -69 0
-331 33 69 0
-339 -69 -105 0
-339 69 105 0
-347 -105 -141 0
-347 105 141 0
-355 -141 -177 0
-355 141 177 0
-363 -177 -213 0
-363 177 213 0
-332 -35 -71 0
-332 35 71 0
-340 -71 -107 0
-340 71 107 0
-348 -107 -143 0
-348 107 143 0
-356 -143 -179 0
-356 143 179 0
-364 -179 -215 0
-364 179 215 0
-7 43 0
7 -43 0
-13 49 0
13 -49 0
-19 55 0
19 -55 0
-25 61 0
25 -61 0
-31 67 0
31 -67 0
-14 50 325 0
14 -50 325 0
-20 56 326 0
20 -56 326 0
-26 62 327 0
26 -62 327 0
-32 68 328 0
32 -68 328 0
-21 57 329 0
21 -57 329 0
-27 63 330 0
27 -63 330 0
-33 69 331 0
33 -69 331 0
-28 64 0
28 -64 0
-34 70 0
34 -70 0
-35 71 332 0
35 -71 332 0
-43 79 0
43 -79 0
-49 85 0
49 -85 0
-55 91 0
55 -91 0
-61 97 0
61 -97 0
-67 103 0
67 -103 0
-50 86 333 0
50 -86 333 0
-56 92 334 0
56 -92 334 0
-62 98 335 0
62 -98 335 0
-68 104 336 0
68 -104 336 0
-57 93 337 0
57 -93 337 0
-63 99 338 0
63 -99 338 0
-69 105 339 0
69 -105 339 0
-64 100 0
64 -100 0
-70 106 0
70 -106 0
-71 107 340 0
71 -107 340 0
-79 115 0
79 -115 0
-85 121 0
85 -121 0
-91 127 0
91 -127 0
-97 133 0
97 -133 0
-103 139 0
103 -139 0
-86 122 341 0
86 -122 341 0
-92 128 342 0
92 -128 342 0
-98 134 343 0
98 -134 343 0
-104 140 344 0
104 -140 344 0
-93 129 345 0
93 -129 345 0
-99 135 346 0
99 -135 346 0
-105 141 347 0
105 -141 347 0
-100 136 0
100 -136 0
-106 142 0
106 -142 0
-107 143 348 0
107 -143 348 0
-115 151 0
115 -151 0
-121 157 0
121 -157 0
-127 163 0
127 -163 0
-133 169 0
133 -169 0
-139 175 0
139 -175 0
-122 158 349 0
122 -158 349 0
-128 164 350 0
128 -164 350 0
-134 170 351 0
134 -170 351 0
-140 176 352 0
140 -176 352 0
-129 165 353 0
129 -165 353 0
-135 171 354 0
135 -171 354 0
-141 177 355 0
141 -177 355 0
-136 172 0
136 -172 0
-142 178 0
142 -178 0
-143 179 356 0
143 -179 356 0
-151 187 0
151 -187 0
-157 193 0
157 -193 0
-163 199 0
163 -199 0
-169 205 0
169 -205 0
-175 211 0
175 -211 0
-158 194 357 0
158 -194 357 0
-164 200 358 0
164 -200 358 0
-170 206 359 0
170 -206 359 0
-176 212 360 0
176 -212 360 0
-165 201 361 0
165 -201 361 0
-171 207 362 0
171 -207 362 0
-177 213 363 0
177 -213 363 0
-172 208 0
172 -208 0
-178 214 0
178 -214 0
-179 215 364 0
179 -215 364 0
-325 -326 0
-325 -327 0
-325 -328 0
-325 -329 0
-325 -330 0
-325 -331 0
-326 -325 0
-326 -327 0
-326 -328 0
-326 -329 0
-327 -325 0
-327 -326 0
-327 -328 0
-327 -330 0
-327 -332 0
-328 -325 0
-328 -326 0
-328 -327 0
-328 -331 0
-328 -332 0
-329 -325 0
-329 -326 0
-329 -330 0
-329 -331 0
-330 -325 0
-330 -327 0
-330 -329 0
-330 -331 0
-330 -332 0
-331 -325 0
-331 -328 0
-331 -329 0
-331 -330 0
-331 -332 0
-332 -327 0
-332 -328 0
-332 -330 0
-332 -331 0
-333 -334 0
-333 -335 0
-333 -336 0
-333 -337 0
-333 -338 0
-333 -339 0
-334 -333 0
-334 -335 0
-334 -336 0
-334 -337 0
-335 -333 0
-335 -334 0
-335 -336 0
-335 -338 0
-335 -340 0
-336 -333 0
-336 -334 0
-336 -335 0
-336 -339 0
-336 -340 0
-337 -333 0
-337 -334 0
-337 -338 0
-337 -339 0
-338 -333 0
-338 -335 0
-338 -337 0
-338 -339 0
-338 -340 0
-339 -333 0
-339 -336 0
-339 -337 0
-339 -338 0
-339 -340 0
-340 -335 0
-340 -336 0
-340 -338 0
-340 -339 0
-341 -342 0
-341 -343 0
-341 -344 0
-341 -345 0
-341 -346 0
-341 -347 0
-342 -341 0
-342 -343 0
-342 -344 0
-342 -345 0
-343 -341 0
-343 -342 0
-343 -344 0
-343 -346 0
-343 -348 0
-344 -341 0
-344 -342 0
-344 -343 0
-344 -347 0
-344 -348 0
-345 -341 0
-345 -342 0
-345 -346 0
-345 -347 0
-346 -341 0
-346 -343 0
-346 -345 0
-346 -347 0
-346 -348 0
-347 -341 0
-347 -344 0
-347 -345 0
-347 -346 0
-347 -348 0
-348 -343 0
-348 -344 0
-348 -346 0
-348 -347 0
-349 -350 0
-349 -351 0
-349 -352 0
-349 -353 0
-349 -354 0
-349 -355 0
-350 -349 0
-350 -351 0
-350 -352 0
-350 -353 0
-351 -349 0
-351 -350 0
-351 -352 0
-351 -354 0
-351 -356 0
-352 -349 0
-352 -350 0
-352 -351 0
-352 -355 0
-352 -356 0
-353 -349 0
-353 -350 0
-353 -354 0
-353 -355 0
-354 -349 0
-354 -351 0
-354 -353 0
-354 -355 0
-354 -356 0
-355 -349 0
-355 -352 0
-355 -353 0
-355 -354 0
-355 -356 0
-356 -351 0
-356 -352 0
-356 -354 0
-356 -355 0
-357 -358 0
-357 -359 0
-357 -360 0
-357 -361 0
-357 -362 0
-357 -363 0
-358 -357 0
-358 -359 0
-358 -360 0
-358 -361 0
-359 -357 0
-359 -358 0
-359 -360 0
-359 -362 0
-359 -364 0
-360 -357 0
-360 -358 0
-360 -359 0
-360 -363 0
-360 -364 0
-361 -357 0
-361 -358 0
-361 -362 0
-361 -363 0
-362 -357 0
-362 -359 0
-362 -361 0
-362 -363 0
-362 -364 0
-363 -357 0
-363 -360 0
-363 -361 0
-363 -362 0
-363 -364 0
-364 -359 0
-364 -360 0
-364 -362 0
-364 -363 0